\ENCODING=ISO-8859-1
\Problem name: Clark-Armentano F(E)

Minimize
 obj1: 40 v61 + 0.2 v121 + 40 v62 + 0.2 v122 + 40 v63 + 0.2 v123 + 40 v64
       + 0.2 v124 + 40 v65 + 0.2 v125 + 40 v66 + 0.2 v126 + 40 v67 + 0.2 v127
       + 40 v68 + 0.2 v128 + 40 v69 + 0.2 v129 + 40 v70 + 0.2 v130 + 40 v71
       + 0.2 v131 + 40 v72 + 0.2 v132 + 50 v73 + 0.05 v133 + 50 v74 + 0.05 v134
       + 50 v75 + 0.05 v135 + 50 v76 + 0.05 v136 + 50 v77 + 0.05 v137 + 50 v78
       + 0.05 v138 + 50 v79 + 0.05 v139 + 50 v80 + 0.05 v140 + 50 v81
       + 0.05 v141 + 50 v82 + 0.05 v142 + 50 v83 + 0.05 v143 + 50 v84
       + 0.05 v144 + 50 v85 + 0.05 v145 + 50 v86 + 0.05 v146 + 50 v87
       + 0.05 v147 + 50 v88 + 0.05 v148 + 50 v89 + 0.05 v149 + 50 v90
       + 0.05 v150 + 50 v91 + 0.05 v151 + 50 v92 + 0.05 v152 + 50 v93
       + 0.05 v153 + 50 v94 + 0.05 v154 + 50 v95 + 0.05 v155 + 50 v96
       + 0.05 v156 + 50 v97 + 0.05 v157 + 50 v98 + 0.05 v158 + 50 v99
       + 0.05 v159 + 50 v100 + 0.05 v160 + 50 v101 + 0.05 v161 + 50 v102
       + 0.05 v162 + 50 v103 + 0.05 v163 + 50 v104 + 0.05 v164 + 50 v105
       + 0.05 v165 + 50 v106 + 0.05 v166 + 50 v107 + 0.05 v167 + 50 v108
       + 0.05 v168 + 50 v109 + 0.05 v169 + 50 v110 + 0.05 v170 + 50 v111
       + 0.05 v171 + 50 v112 + 0.05 v172 + 50 v113 + 0.05 v173 + 50 v114
       + 0.05 v174 + 50 v115 + 0.05 v175 + 50 v116 + 0.05 v176 + 50 v117
       + 0.05 v177 + 50 v118 + 0.05 v178 + 50 v119 + 0.05 v179 + 50 v120
       + 0.05 v180
Subject To
 c1:   - 1105 v61 + v1 <= 0
 c2:   - v121 + v1  = 230
 c3:   - 875 v62 + v2 <= 0
 c4:   v121 - v122 + v2  = 180
 c5:   - 695 v63 + v3 <= 0
 c6:   v122 - v123 + v3  = 10
 c7:   - 685 v64 + v4 <= 0
 c8:   v123 - v124 + v4  = 20
 c9:   - 665 v65 + v5 <= 0
 c10:  v124 - v125 + v5  = 70
 c11:  - 595 v66 + v6 <= 0
 c12:  v125 - v126 + v6  = 40
 c13:  - 555 v67 + v7 <= 0
 c14:  v126 - v127 + v7  = 0
 c15:  - 555 v68 + v8 <= 0
 c16:  v127 - v128 + v8  = 15
 c17:  - 540 v69 + v9 <= 0
 c18:  v128 - v129 + v9  = 10
 c19:  - 530 v70 + v10 <= 0
 c20:  v129 - v130 + v10  = 250
 c21:  - 280 v71 + v11 <= 0
 c22:  v130 - v131 + v11  = 10
 c23:  - 270 v72 + v12 <= 0
 c24:  v131 - v132 + v12  = 270
 c25:  - 1105 v73 + v13 <= 0
 c26:  - v133 + v13  = 230
 c27:  v121 - v133 <= 0
 c28:  - 875 v74 + v14 <= 0
 c29:  v133 - v134 + v14  = 180
 c30:  v122 - v134 <= 0
 c31:  - 695 v75 + v15 <= 0
 c32:  v134 - v135 + v15  = 10
 c33:  v123 - v135 <= 0
 c34:  - 685 v76 + v16 <= 0
 c35:  v135 - v136 + v16  = 20
 c36:  v124 - v136 <= 0
 c37:  - 665 v77 + v17 <= 0
 c38:  v136 - v137 + v17  = 70
 c39:  v125 - v137 <= 0
 c40:  - 595 v78 + v18 <= 0
 c41:  v137 - v138 + v18  = 40
 c42:  v126 - v138 <= 0
 c43:  - 555 v79 + v19 <= 0
 c44:  v138 - v139 + v19  = 0
 c45:  v127 - v139 <= 0
 c46:  - 555 v80 + v20 <= 0
 c47:  v139 - v140 + v20  = 15
 c48:  v128 - v140 <= 0
 c49:  - 540 v81 + v21 <= 0
 c50:  v140 - v141 + v21  = 10
 c51:  v129 - v141 <= 0
 c52:  - 530 v82 + v22 <= 0
 c53:  v141 - v142 + v22  = 250
 c54:  v130 - v142 <= 0
 c55:  - 280 v83 + v23 <= 0
 c56:  v142 - v143 + v23  = 10
 c57:  v131 - v143 <= 0
 c58:  - 270 v84 + v24 <= 0
 c59:  v143 - v144 + v24  = 270
 c60:  v132 - v144 <= 0
 c61:  - 1105 v85 + v25 <= 0
 c62:  - v145 + v25  = 230
 c63:  v121 - v145 <= 0
 c64:  - 875 v86 + v26 <= 0
 c65:  v145 - v146 + v26  = 180
 c66:  v122 - v146 <= 0
 c67:  - 695 v87 + v27 <= 0
 c68:  v146 - v147 + v27  = 10
 c69:  v123 - v147 <= 0
 c70:  - 685 v88 + v28 <= 0
 c71:  v147 - v148 + v28  = 20
 c72:  v124 - v148 <= 0
 c73:  - 665 v89 + v29 <= 0
 c74:  v148 - v149 + v29  = 70
 c75:  v125 - v149 <= 0
 c76:  - 595 v90 + v30 <= 0
 c77:  v149 - v150 + v30  = 40
 c78:  v126 - v150 <= 0
 c79:  - 555 v91 + v31 <= 0
 c80:  v150 - v151 + v31  = 0
 c81:  v127 - v151 <= 0
 c82:  - 555 v92 + v32 <= 0
 c83:  v151 - v152 + v32  = 15
 c84:  v128 - v152 <= 0
 c85:  - 540 v93 + v33 <= 0
 c86:  v152 - v153 + v33  = 10
 c87:  v129 - v153 <= 0
 c88:  - 530 v94 + v34 <= 0
 c89:  v153 - v154 + v34  = 250
 c90:  v130 - v154 <= 0
 c91:  - 280 v95 + v35 <= 0
 c92:  v154 - v155 + v35  = 10
 c93:  v131 - v155 <= 0
 c94:  - 270 v96 + v36 <= 0
 c95:  v155 - v156 + v36  = 270
 c96:  v132 - v156 <= 0
 c97:  - 1105 v97 + v37 <= 0
 c98:  - v157 + v37  = 230
 c99:  v121 - v157 <= 0
 c100: - 875 v98 + v38 <= 0
 c101: v157 - v158 + v38  = 180
 c102: v122 - v158 <= 0
 c103: - 695 v99 + v39 <= 0
 c104: v158 - v159 + v39  = 10
 c105: v123 - v159 <= 0
 c106: - 685 v100 + v40 <= 0
 c107: v159 - v160 + v40  = 20
 c108: v124 - v160 <= 0
 c109: - 665 v101 + v41 <= 0
 c110: v160 - v161 + v41  = 70
 c111: v125 - v161 <= 0
 c112: - 595 v102 + v42 <= 0
 c113: v161 - v162 + v42  = 40
 c114: v126 - v162 <= 0
 c115: - 555 v103 + v43 <= 0
 c116: v162 - v163 + v43  = 0
 c117: v127 - v163 <= 0
 c118: - 555 v104 + v44 <= 0
 c119: v163 - v164 + v44  = 15
 c120: v128 - v164 <= 0
 c121: - 540 v105 + v45 <= 0
 c122: v164 - v165 + v45  = 10
 c123: v129 - v165 <= 0
 c124: - 530 v106 + v46 <= 0
 c125: v165 - v166 + v46  = 250
 c126: v130 - v166 <= 0
 c127: - 280 v107 + v47 <= 0
 c128: v166 - v167 + v47  = 10
 c129: v131 - v167 <= 0
 c130: - 270 v108 + v48 <= 0
 c131: v167 - v168 + v48  = 270
 c132: v132 - v168 <= 0
 c133: - 1105 v109 + v49 <= 0
 c134: - v169 + v49  = 230
 c135: v121 - v169 <= 0
 c136: - 875 v110 + v50 <= 0
 c137: v169 - v170 + v50  = 180
 c138: v122 - v170 <= 0
 c139: - 695 v111 + v51 <= 0
 c140: v170 - v171 + v51  = 10
 c141: v123 - v171 <= 0
 c142: - 685 v112 + v52 <= 0
 c143: v171 - v172 + v52  = 20
 c144: v124 - v172 <= 0
 c145: - 665 v113 + v53 <= 0
 c146: v172 - v173 + v53  = 70
 c147: v125 - v173 <= 0
 c148: - 595 v114 + v54 <= 0
 c149: v173 - v174 + v54  = 40
 c150: v126 - v174 <= 0
 c151: - 555 v115 + v55 <= 0
 c152: v174 - v175 + v55  = 0
 c153: v127 - v175 <= 0
 c154: - 555 v116 + v56 <= 0
 c155: v175 - v176 + v56  = 15
 c156: v128 - v176 <= 0
 c157: - 540 v117 + v57 <= 0
 c158: v176 - v177 + v57  = 10
 c159: v129 - v177 <= 0
 c160: - 530 v118 + v58 <= 0
 c161: v177 - v178 + v58  = 250
 c162: v130 - v178 <= 0
 c163: - 280 v119 + v59 <= 0
 c164: v178 - v179 + v59  = 10
 c165: v131 - v179 <= 0
 c166: - 270 v120 + v60 <= 0
 c167: v179 - v180 + v60  = 270
 c168: v132 - v180 <= 0
Bounds
 0 <= v61 <= 1
 0 <= v62 <= 1
 0 <= v63 <= 1
 0 <= v64 <= 1
 0 <= v65 <= 1
 0 <= v66 <= 1
 0 <= v67 <= 1
 0 <= v68 <= 1
 0 <= v69 <= 1
 0 <= v70 <= 1
 0 <= v71 <= 1
 0 <= v72 <= 1
 0 <= v73 <= 1
 0 <= v74 <= 1
 0 <= v75 <= 1
 0 <= v76 <= 1
 0 <= v77 <= 1
 0 <= v78 <= 1
 0 <= v79 <= 1
 0 <= v80 <= 1
 0 <= v81 <= 1
 0 <= v82 <= 1
 0 <= v83 <= 1
 0 <= v84 <= 1
 0 <= v85 <= 1
 0 <= v86 <= 1
 0 <= v87 <= 1
 0 <= v88 <= 1
 0 <= v89 <= 1
 0 <= v90 <= 1
 0 <= v91 <= 1
 0 <= v92 <= 1
 0 <= v93 <= 1
 0 <= v94 <= 1
 0 <= v95 <= 1
 0 <= v96 <= 1
 0 <= v97 <= 1
 0 <= v98 <= 1
 0 <= v99 <= 1
 0 <= v100 <= 1
 0 <= v101 <= 1
 0 <= v102 <= 1
 0 <= v103 <= 1
 0 <= v104 <= 1
 0 <= v105 <= 1
 0 <= v106 <= 1
 0 <= v107 <= 1
 0 <= v108 <= 1
 0 <= v109 <= 1
 0 <= v110 <= 1
 0 <= v111 <= 1
 0 <= v112 <= 1
 0 <= v113 <= 1
 0 <= v114 <= 1
 0 <= v115 <= 1
 0 <= v116 <= 1
 0 <= v117 <= 1
 0 <= v118 <= 1
 0 <= v119 <= 1
 0 <= v120 <= 1
 0 <= v1 <= 1105
 0 <= v2 <= 875
 0 <= v3 <= 695
 0 <= v4 <= 685
 0 <= v5 <= 665
 0 <= v6 <= 595
 0 <= v7 <= 555
 0 <= v8 <= 555
 0 <= v9 <= 540
 0 <= v10 <= 530
 0 <= v11 <= 280
 0 <= v12 <= 270
 0 <= v13 <= 1105
 0 <= v14 <= 875
 0 <= v15 <= 695
 0 <= v16 <= 685
 0 <= v17 <= 665
 0 <= v18 <= 595
 0 <= v19 <= 555
 0 <= v20 <= 555
 0 <= v21 <= 540
 0 <= v22 <= 530
 0 <= v23 <= 280
 0 <= v24 <= 270
 0 <= v25 <= 1105
 0 <= v26 <= 875
 0 <= v27 <= 695
 0 <= v28 <= 685
 0 <= v29 <= 665
 0 <= v30 <= 595
 0 <= v31 <= 555
 0 <= v32 <= 555
 0 <= v33 <= 540
 0 <= v34 <= 530
 0 <= v35 <= 280
 0 <= v36 <= 270
 0 <= v37 <= 1105
 0 <= v38 <= 875
 0 <= v39 <= 695
 0 <= v40 <= 685
 0 <= v41 <= 665
 0 <= v42 <= 595
 0 <= v43 <= 555
 0 <= v44 <= 555
 0 <= v45 <= 540
 0 <= v46 <= 530
 0 <= v47 <= 280
 0 <= v48 <= 270
 0 <= v49 <= 1105
 0 <= v50 <= 875
 0 <= v51 <= 695
 0 <= v52 <= 685
 0 <= v53 <= 665
 0 <= v54 <= 595
 0 <= v55 <= 555
 0 <= v56 <= 555
 0 <= v57 <= 540
 0 <= v58 <= 530
 0 <= v59 <= 280
 0 <= v60 <= 270
Binaries
 v61  v62  v63  v64  v65  v66  v67  v68  v69  v70  v71  v72  v73  v74  v75 
 v76  v77  v78  v79  v80  v81  v82  v83  v84  v85  v86  v87  v88  v89  v90 
 v91  v92  v93  v94  v95  v96  v97  v98  v99  v100  v101  v102  v103  v104 
 v105  v106  v107  v108  v109  v110  v111  v112  v113  v114  v115  v116  v117 
 v118  v119  v120 
End
