\ENCODING=ISO-8859-1
\Problem name: Clark-Armentano F(E)

Minimize
 obj1: 20.48 v61 + 0.00665500000000001 v121 + 20.48 v62
       + 0.00665500000000001 v122 + 20.48 v63 + 0.00665500000000001 v123
       + 20.48 v64 + 0.00665500000000001 v124 + 20.48 v65
       + 0.00665500000000001 v125 + 20.48 v66 + 0.00665500000000001 v126
       + 20.48 v67 + 0.00665500000000001 v127 + 20.48 v68
       + 0.00665500000000001 v128 + 20.48 v69 + 0.00665500000000001 v129
       + 20.48 v70 + 0.00665500000000001 v130 + 20.48 v71
       + 0.00665500000000001 v131 + 20.48 v72 + 0.00665500000000001 v132
       + 25.6 v73 + 0.00605 v133 + 25.6 v74 + 0.00605 v134 + 25.6 v75
       + 0.00605 v135 + 25.6 v76 + 0.00605 v136 + 25.6 v77 + 0.00605 v137
       + 25.6 v78 + 0.00605 v138 + 25.6 v79 + 0.00605 v139 + 25.6 v80
       + 0.00605 v140 + 25.6 v81 + 0.00605 v141 + 25.6 v82 + 0.00605 v142
       + 25.6 v83 + 0.00605 v143 + 25.6 v84 + 0.00605 v144 + 32 v85
       + 0.0055 v145 + 32 v86 + 0.0055 v146 + 32 v87 + 0.0055 v147 + 32 v88
       + 0.0055 v148 + 32 v89 + 0.0055 v149 + 32 v90 + 0.0055 v150 + 32 v91
       + 0.0055 v151 + 32 v92 + 0.0055 v152 + 32 v93 + 0.0055 v153 + 32 v94
       + 0.0055 v154 + 32 v95 + 0.0055 v155 + 32 v96 + 0.0055 v156 + 40 v97
       + 0.005 v157 + 40 v98 + 0.005 v158 + 40 v99 + 0.005 v159 + 40 v100
       + 0.005 v160 + 40 v101 + 0.005 v161 + 40 v102 + 0.005 v162 + 40 v103
       + 0.005 v163 + 40 v104 + 0.005 v164 + 40 v105 + 0.005 v165 + 40 v106
       + 0.005 v166 + 40 v107 + 0.005 v167 + 40 v108 + 0.005 v168 + 50 v109
       + 0.05 v169 + 50 v110 + 0.05 v170 + 50 v111 + 0.05 v171 + 50 v112
       + 0.05 v172 + 50 v113 + 0.05 v173 + 50 v114 + 0.05 v174 + 50 v115
       + 0.05 v175 + 50 v116 + 0.05 v176 + 50 v117 + 0.05 v177 + 50 v118
       + 0.05 v178 + 50 v119 + 0.05 v179 + 50 v120 + 0.05 v180
Subject To
 c1:   - 1105 v61 + v1 <= 0
 c2:   - v121 + v1  = 80
 c3:   - 1025 v62 + v2 <= 0
 c4:   v121 - v122 + v2  = 100
 c5:   - 925 v63 + v3 <= 0
 c6:   v122 - v123 + v3  = 80
 c7:   - 845 v64 + v4 <= 0
 c8:   v123 - v124 + v4  = 180
 c9:   - 665 v65 + v5 <= 0
 c10:  v124 - v125 + v5  = 95
 c11:  - 570 v66 + v6 <= 0
 c12:  v125 - v126 + v6  = 10
 c13:  - 560 v67 + v7 <= 0
 c14:  v126 - v127 + v7  = 150
 c15:  - 410 v68 + v8 <= 0
 c16:  v127 - v128 + v8  = 50
 c17:  - 360 v69 + v9 <= 0
 c18:  v128 - v129 + v9  = 0
 c19:  - 360 v70 + v10 <= 0
 c20:  v129 - v130 + v10  = 180
 c21:  - 180 v71 + v11 <= 0
 c22:  v130 - v131 + v11  = 0
 c23:  - 180 v72 + v12 <= 0
 c24:  v131 - v132 + v12  = 180
 c25:  - 1105 v73 + v13 <= 0
 c26:  - v133 + v13  = 80
 c27:  v121 - v133 <= 0
 c28:  - 1025 v74 + v14 <= 0
 c29:  v133 - v134 + v14  = 100
 c30:  v122 - v134 <= 0
 c31:  - 925 v75 + v15 <= 0
 c32:  v134 - v135 + v15  = 80
 c33:  v123 - v135 <= 0
 c34:  - 845 v76 + v16 <= 0
 c35:  v135 - v136 + v16  = 180
 c36:  v124 - v136 <= 0
 c37:  - 665 v77 + v17 <= 0
 c38:  v136 - v137 + v17  = 95
 c39:  v125 - v137 <= 0
 c40:  - 570 v78 + v18 <= 0
 c41:  v137 - v138 + v18  = 10
 c42:  v126 - v138 <= 0
 c43:  - 560 v79 + v19 <= 0
 c44:  v138 - v139 + v19  = 150
 c45:  v127 - v139 <= 0
 c46:  - 410 v80 + v20 <= 0
 c47:  v139 - v140 + v20  = 50
 c48:  v128 - v140 <= 0
 c49:  - 360 v81 + v21 <= 0
 c50:  v140 - v141 + v21  = 0
 c51:  v129 - v141 <= 0
 c52:  - 360 v82 + v22 <= 0
 c53:  v141 - v142 + v22  = 180
 c54:  v130 - v142 <= 0
 c55:  - 180 v83 + v23 <= 0
 c56:  v142 - v143 + v23  = 0
 c57:  v131 - v143 <= 0
 c58:  - 180 v84 + v24 <= 0
 c59:  v143 - v144 + v24  = 180
 c60:  v132 - v144 <= 0
 c61:  - 1105 v85 + v25 <= 0
 c62:  - v145 + v25  = 80
 c63:  v133 - v145 <= 0
 c64:  - 1025 v86 + v26 <= 0
 c65:  v145 - v146 + v26  = 100
 c66:  v134 - v146 <= 0
 c67:  - 925 v87 + v27 <= 0
 c68:  v146 - v147 + v27  = 80
 c69:  v135 - v147 <= 0
 c70:  - 845 v88 + v28 <= 0
 c71:  v147 - v148 + v28  = 180
 c72:  v136 - v148 <= 0
 c73:  - 665 v89 + v29 <= 0
 c74:  v148 - v149 + v29  = 95
 c75:  v137 - v149 <= 0
 c76:  - 570 v90 + v30 <= 0
 c77:  v149 - v150 + v30  = 10
 c78:  v138 - v150 <= 0
 c79:  - 560 v91 + v31 <= 0
 c80:  v150 - v151 + v31  = 150
 c81:  v139 - v151 <= 0
 c82:  - 410 v92 + v32 <= 0
 c83:  v151 - v152 + v32  = 50
 c84:  v140 - v152 <= 0
 c85:  - 360 v93 + v33 <= 0
 c86:  v152 - v153 + v33  = 0
 c87:  v141 - v153 <= 0
 c88:  - 360 v94 + v34 <= 0
 c89:  v153 - v154 + v34  = 180
 c90:  v142 - v154 <= 0
 c91:  - 180 v95 + v35 <= 0
 c92:  v154 - v155 + v35  = 0
 c93:  v143 - v155 <= 0
 c94:  - 180 v96 + v36 <= 0
 c95:  v155 - v156 + v36  = 180
 c96:  v144 - v156 <= 0
 c97:  - 1105 v97 + v37 <= 0
 c98:  - v157 + v37  = 80
 c99:  v145 - v157 <= 0
 c100: - 1025 v98 + v38 <= 0
 c101: v157 - v158 + v38  = 100
 c102: v146 - v158 <= 0
 c103: - 925 v99 + v39 <= 0
 c104: v158 - v159 + v39  = 80
 c105: v147 - v159 <= 0
 c106: - 845 v100 + v40 <= 0
 c107: v159 - v160 + v40  = 180
 c108: v148 - v160 <= 0
 c109: - 665 v101 + v41 <= 0
 c110: v160 - v161 + v41  = 95
 c111: v149 - v161 <= 0
 c112: - 570 v102 + v42 <= 0
 c113: v161 - v162 + v42  = 10
 c114: v150 - v162 <= 0
 c115: - 560 v103 + v43 <= 0
 c116: v162 - v163 + v43  = 150
 c117: v151 - v163 <= 0
 c118: - 410 v104 + v44 <= 0
 c119: v163 - v164 + v44  = 50
 c120: v152 - v164 <= 0
 c121: - 360 v105 + v45 <= 0
 c122: v164 - v165 + v45  = 0
 c123: v153 - v165 <= 0
 c124: - 360 v106 + v46 <= 0
 c125: v165 - v166 + v46  = 180
 c126: v154 - v166 <= 0
 c127: - 180 v107 + v47 <= 0
 c128: v166 - v167 + v47  = 0
 c129: v155 - v167 <= 0
 c130: - 180 v108 + v48 <= 0
 c131: v167 - v168 + v48  = 180
 c132: v156 - v168 <= 0
 c133: - 1105 v109 + v49 <= 0
 c134: - v169 + v49  = 80
 c135: v157 - v169 <= 0
 c136: - 1025 v110 + v50 <= 0
 c137: v169 - v170 + v50  = 100
 c138: v158 - v170 <= 0
 c139: - 925 v111 + v51 <= 0
 c140: v170 - v171 + v51  = 80
 c141: v159 - v171 <= 0
 c142: - 845 v112 + v52 <= 0
 c143: v171 - v172 + v52  = 180
 c144: v160 - v172 <= 0
 c145: - 665 v113 + v53 <= 0
 c146: v172 - v173 + v53  = 95
 c147: v161 - v173 <= 0
 c148: - 570 v114 + v54 <= 0
 c149: v173 - v174 + v54  = 10
 c150: v162 - v174 <= 0
 c151: - 560 v115 + v55 <= 0
 c152: v174 - v175 + v55  = 150
 c153: v163 - v175 <= 0
 c154: - 410 v116 + v56 <= 0
 c155: v175 - v176 + v56  = 50
 c156: v164 - v176 <= 0
 c157: - 360 v117 + v57 <= 0
 c158: v176 - v177 + v57  = 0
 c159: v165 - v177 <= 0
 c160: - 360 v118 + v58 <= 0
 c161: v177 - v178 + v58  = 180
 c162: v166 - v178 <= 0
 c163: - 180 v119 + v59 <= 0
 c164: v178 - v179 + v59  = 0
 c165: v167 - v179 <= 0
 c166: - 180 v120 + v60 <= 0
 c167: v179 - v180 + v60  = 180
 c168: v168 - v180 <= 0
Bounds
 0 <= v61 <= 1
 0 <= v62 <= 1
 0 <= v63 <= 1
 0 <= v64 <= 1
 0 <= v65 <= 1
 0 <= v66 <= 1
 0 <= v67 <= 1
 0 <= v68 <= 1
 0 <= v69 <= 1
 0 <= v70 <= 1
 0 <= v71 <= 1
 0 <= v72 <= 1
 0 <= v73 <= 1
 0 <= v74 <= 1
 0 <= v75 <= 1
 0 <= v76 <= 1
 0 <= v77 <= 1
 0 <= v78 <= 1
 0 <= v79 <= 1
 0 <= v80 <= 1
 0 <= v81 <= 1
 0 <= v82 <= 1
 0 <= v83 <= 1
 0 <= v84 <= 1
 0 <= v85 <= 1
 0 <= v86 <= 1
 0 <= v87 <= 1
 0 <= v88 <= 1
 0 <= v89 <= 1
 0 <= v90 <= 1
 0 <= v91 <= 1
 0 <= v92 <= 1
 0 <= v93 <= 1
 0 <= v94 <= 1
 0 <= v95 <= 1
 0 <= v96 <= 1
 0 <= v97 <= 1
 0 <= v98 <= 1
 0 <= v99 <= 1
 0 <= v100 <= 1
 0 <= v101 <= 1
 0 <= v102 <= 1
 0 <= v103 <= 1
 0 <= v104 <= 1
 0 <= v105 <= 1
 0 <= v106 <= 1
 0 <= v107 <= 1
 0 <= v108 <= 1
 0 <= v109 <= 1
 0 <= v110 <= 1
 0 <= v111 <= 1
 0 <= v112 <= 1
 0 <= v113 <= 1
 0 <= v114 <= 1
 0 <= v115 <= 1
 0 <= v116 <= 1
 0 <= v117 <= 1
 0 <= v118 <= 1
 0 <= v119 <= 1
 0 <= v120 <= 1
 0 <= v1 <= 1105
 0 <= v2 <= 1025
 0 <= v3 <= 925
 0 <= v4 <= 845
 0 <= v5 <= 665
 0 <= v6 <= 570
 0 <= v7 <= 560
 0 <= v8 <= 410
 0 <= v9 <= 360
 0 <= v10 <= 360
 0 <= v11 <= 180
 0 <= v12 <= 180
 0 <= v13 <= 1105
 0 <= v14 <= 1025
 0 <= v15 <= 925
 0 <= v16 <= 845
 0 <= v17 <= 665
 0 <= v18 <= 570
 0 <= v19 <= 560
 0 <= v20 <= 410
 0 <= v21 <= 360
 0 <= v22 <= 360
 0 <= v23 <= 180
 0 <= v24 <= 180
 0 <= v25 <= 1105
 0 <= v26 <= 1025
 0 <= v27 <= 925
 0 <= v28 <= 845
 0 <= v29 <= 665
 0 <= v30 <= 570
 0 <= v31 <= 560
 0 <= v32 <= 410
 0 <= v33 <= 360
 0 <= v34 <= 360
 0 <= v35 <= 180
 0 <= v36 <= 180
 0 <= v37 <= 1105
 0 <= v38 <= 1025
 0 <= v39 <= 925
 0 <= v40 <= 845
 0 <= v41 <= 665
 0 <= v42 <= 570
 0 <= v43 <= 560
 0 <= v44 <= 410
 0 <= v45 <= 360
 0 <= v46 <= 360
 0 <= v47 <= 180
 0 <= v48 <= 180
 0 <= v49 <= 1105
 0 <= v50 <= 1025
 0 <= v51 <= 925
 0 <= v52 <= 845
 0 <= v53 <= 665
 0 <= v54 <= 570
 0 <= v55 <= 560
 0 <= v56 <= 410
 0 <= v57 <= 360
 0 <= v58 <= 360
 0 <= v59 <= 180
 0 <= v60 <= 180
Binaries
 v61  v62  v63  v64  v65  v66  v67  v68  v69  v70  v71  v72  v73  v74  v75 
 v76  v77  v78  v79  v80  v81  v82  v83  v84  v85  v86  v87  v88  v89  v90 
 v91  v92  v93  v94  v95  v96  v97  v98  v99  v100  v101  v102  v103  v104 
 v105  v106  v107  v108  v109  v110  v111  v112  v113  v114  v115  v116  v117 
 v118  v119  v120 
End
