\ENCODING=ISO-8859-1
\Problem name: Clark-Armentano F(E)

Minimize
 obj1: 40 v61 + 0.02 v121 + 40 v62 + 0.02 v122 + 40 v63 + 0.02 v123 + 40 v64
       + 0.02 v124 + 40 v65 + 0.02 v125 + 40 v66 + 0.02 v126 + 40 v67
       + 0.02 v127 + 40 v68 + 0.02 v128 + 40 v69 + 0.02 v129 + 40 v70
       + 0.02 v130 + 40 v71 + 0.02 v131 + 40 v72 + 0.02 v132 + 50 v73
       + 0.05 v133 + 50 v74 + 0.05 v134 + 50 v75 + 0.05 v135 + 50 v76
       + 0.05 v136 + 50 v77 + 0.05 v137 + 50 v78 + 0.05 v138 + 50 v79
       + 0.05 v139 + 50 v80 + 0.05 v140 + 50 v81 + 0.05 v141 + 50 v82
       + 0.05 v142 + 50 v83 + 0.05 v143 + 50 v84 + 0.05 v144 + 50 v85
       + 0.05 v145 + 50 v86 + 0.05 v146 + 50 v87 + 0.05 v147 + 50 v88
       + 0.05 v148 + 50 v89 + 0.05 v149 + 50 v90 + 0.05 v150 + 50 v91
       + 0.05 v151 + 50 v92 + 0.05 v152 + 50 v93 + 0.05 v153 + 50 v94
       + 0.05 v154 + 50 v95 + 0.05 v155 + 50 v96 + 0.05 v156 + 50 v97
       + 0.05 v157 + 50 v98 + 0.05 v158 + 50 v99 + 0.05 v159 + 50 v100
       + 0.05 v160 + 50 v101 + 0.05 v161 + 50 v102 + 0.05 v162 + 50 v103
       + 0.05 v163 + 50 v104 + 0.05 v164 + 50 v105 + 0.05 v165 + 50 v106
       + 0.05 v166 + 50 v107 + 0.05 v167 + 50 v108 + 0.05 v168 + 50 v109
       + 0.05 v169 + 50 v110 + 0.05 v170 + 50 v111 + 0.05 v171 + 50 v112
       + 0.05 v172 + 50 v113 + 0.05 v173 + 50 v114 + 0.05 v174 + 50 v115
       + 0.05 v175 + 50 v116 + 0.05 v176 + 50 v117 + 0.05 v177 + 50 v118
       + 0.05 v178 + 50 v119 + 0.05 v179 + 50 v120 + 0.05 v180
Subject To
 c1:   - 1105 v61 + v1 <= 0
 c2:   - v121 + v1  = 10
 c3:   - 1095 v62 + v2 <= 0
 c4:   v121 - v122 + v2  = 10
 c5:   - 1085 v63 + v3 <= 0
 c6:   v122 - v123 + v3  = 15
 c7:   - 1070 v64 + v4 <= 0
 c8:   v123 - v124 + v4  = 20
 c9:   - 1050 v65 + v5 <= 0
 c10:  v124 - v125 + v5  = 70
 c11:  - 980 v66 + v6 <= 0
 c12:  v125 - v126 + v6  = 180
 c13:  - 800 v67 + v7 <= 0
 c14:  v126 - v127 + v7  = 250
 c15:  - 550 v68 + v8 <= 0
 c16:  v127 - v128 + v8  = 270
 c17:  - 280 v69 + v9 <= 0
 c18:  v128 - v129 + v9  = 230
 c19:  - 50 v70 + v10 <= 0
 c20:  v129 - v130 + v10  = 40
 c21:  - 10 v71 + v11 <= 0
 c22:  v130 - v131 + v11  = 0
 c23:  - 10 v72 + v12 <= 0
 c24:  v131 - v132 + v12  = 10
 c25:  - 1105 v73 + v13 <= 0
 c26:  - v133 + v13  = 10
 c27:  v121 - v133 <= 0
 c28:  - 1095 v74 + v14 <= 0
 c29:  v133 - v134 + v14  = 10
 c30:  v122 - v134 <= 0
 c31:  - 1085 v75 + v15 <= 0
 c32:  v134 - v135 + v15  = 15
 c33:  v123 - v135 <= 0
 c34:  - 1070 v76 + v16 <= 0
 c35:  v135 - v136 + v16  = 20
 c36:  v124 - v136 <= 0
 c37:  - 1050 v77 + v17 <= 0
 c38:  v136 - v137 + v17  = 70
 c39:  v125 - v137 <= 0
 c40:  - 980 v78 + v18 <= 0
 c41:  v137 - v138 + v18  = 180
 c42:  v126 - v138 <= 0
 c43:  - 800 v79 + v19 <= 0
 c44:  v138 - v139 + v19  = 250
 c45:  v127 - v139 <= 0
 c46:  - 550 v80 + v20 <= 0
 c47:  v139 - v140 + v20  = 270
 c48:  v128 - v140 <= 0
 c49:  - 280 v81 + v21 <= 0
 c50:  v140 - v141 + v21  = 230
 c51:  v129 - v141 <= 0
 c52:  - 50 v82 + v22 <= 0
 c53:  v141 - v142 + v22  = 40
 c54:  v130 - v142 <= 0
 c55:  - 10 v83 + v23 <= 0
 c56:  v142 - v143 + v23  = 0
 c57:  v131 - v143 <= 0
 c58:  - 10 v84 + v24 <= 0
 c59:  v143 - v144 + v24  = 10
 c60:  v132 - v144 <= 0
 c61:  - 1105 v85 + v25 <= 0
 c62:  - v145 + v25  = 10
 c63:  v121 - v145 <= 0
 c64:  - 1095 v86 + v26 <= 0
 c65:  v145 - v146 + v26  = 10
 c66:  v122 - v146 <= 0
 c67:  - 1085 v87 + v27 <= 0
 c68:  v146 - v147 + v27  = 15
 c69:  v123 - v147 <= 0
 c70:  - 1070 v88 + v28 <= 0
 c71:  v147 - v148 + v28  = 20
 c72:  v124 - v148 <= 0
 c73:  - 1050 v89 + v29 <= 0
 c74:  v148 - v149 + v29  = 70
 c75:  v125 - v149 <= 0
 c76:  - 980 v90 + v30 <= 0
 c77:  v149 - v150 + v30  = 180
 c78:  v126 - v150 <= 0
 c79:  - 800 v91 + v31 <= 0
 c80:  v150 - v151 + v31  = 250
 c81:  v127 - v151 <= 0
 c82:  - 550 v92 + v32 <= 0
 c83:  v151 - v152 + v32  = 270
 c84:  v128 - v152 <= 0
 c85:  - 280 v93 + v33 <= 0
 c86:  v152 - v153 + v33  = 230
 c87:  v129 - v153 <= 0
 c88:  - 50 v94 + v34 <= 0
 c89:  v153 - v154 + v34  = 40
 c90:  v130 - v154 <= 0
 c91:  - 10 v95 + v35 <= 0
 c92:  v154 - v155 + v35  = 0
 c93:  v131 - v155 <= 0
 c94:  - 10 v96 + v36 <= 0
 c95:  v155 - v156 + v36  = 10
 c96:  v132 - v156 <= 0
 c97:  - 1105 v97 + v37 <= 0
 c98:  - v157 + v37  = 10
 c99:  v121 - v157 <= 0
 c100: - 1095 v98 + v38 <= 0
 c101: v157 - v158 + v38  = 10
 c102: v122 - v158 <= 0
 c103: - 1085 v99 + v39 <= 0
 c104: v158 - v159 + v39  = 15
 c105: v123 - v159 <= 0
 c106: - 1070 v100 + v40 <= 0
 c107: v159 - v160 + v40  = 20
 c108: v124 - v160 <= 0
 c109: - 1050 v101 + v41 <= 0
 c110: v160 - v161 + v41  = 70
 c111: v125 - v161 <= 0
 c112: - 980 v102 + v42 <= 0
 c113: v161 - v162 + v42  = 180
 c114: v126 - v162 <= 0
 c115: - 800 v103 + v43 <= 0
 c116: v162 - v163 + v43  = 250
 c117: v127 - v163 <= 0
 c118: - 550 v104 + v44 <= 0
 c119: v163 - v164 + v44  = 270
 c120: v128 - v164 <= 0
 c121: - 280 v105 + v45 <= 0
 c122: v164 - v165 + v45  = 230
 c123: v129 - v165 <= 0
 c124: - 50 v106 + v46 <= 0
 c125: v165 - v166 + v46  = 40
 c126: v130 - v166 <= 0
 c127: - 10 v107 + v47 <= 0
 c128: v166 - v167 + v47  = 0
 c129: v131 - v167 <= 0
 c130: - 10 v108 + v48 <= 0
 c131: v167 - v168 + v48  = 10
 c132: v132 - v168 <= 0
 c133: - 1105 v109 + v49 <= 0
 c134: - v169 + v49  = 10
 c135: v121 - v169 <= 0
 c136: - 1095 v110 + v50 <= 0
 c137: v169 - v170 + v50  = 10
 c138: v122 - v170 <= 0
 c139: - 1085 v111 + v51 <= 0
 c140: v170 - v171 + v51  = 15
 c141: v123 - v171 <= 0
 c142: - 1070 v112 + v52 <= 0
 c143: v171 - v172 + v52  = 20
 c144: v124 - v172 <= 0
 c145: - 1050 v113 + v53 <= 0
 c146: v172 - v173 + v53  = 70
 c147: v125 - v173 <= 0
 c148: - 980 v114 + v54 <= 0
 c149: v173 - v174 + v54  = 180
 c150: v126 - v174 <= 0
 c151: - 800 v115 + v55 <= 0
 c152: v174 - v175 + v55  = 250
 c153: v127 - v175 <= 0
 c154: - 550 v116 + v56 <= 0
 c155: v175 - v176 + v56  = 270
 c156: v128 - v176 <= 0
 c157: - 280 v117 + v57 <= 0
 c158: v176 - v177 + v57  = 230
 c159: v129 - v177 <= 0
 c160: - 50 v118 + v58 <= 0
 c161: v177 - v178 + v58  = 40
 c162: v130 - v178 <= 0
 c163: - 10 v119 + v59 <= 0
 c164: v178 - v179 + v59  = 0
 c165: v131 - v179 <= 0
 c166: - 10 v120 + v60 <= 0
 c167: v179 - v180 + v60  = 10
 c168: v132 - v180 <= 0
Bounds
 0 <= v61 <= 1
 0 <= v62 <= 1
 0 <= v63 <= 1
 0 <= v64 <= 1
 0 <= v65 <= 1
 0 <= v66 <= 1
 0 <= v67 <= 1
 0 <= v68 <= 1
 0 <= v69 <= 1
 0 <= v70 <= 1
 0 <= v71 <= 1
 0 <= v72 <= 1
 0 <= v73 <= 1
 0 <= v74 <= 1
 0 <= v75 <= 1
 0 <= v76 <= 1
 0 <= v77 <= 1
 0 <= v78 <= 1
 0 <= v79 <= 1
 0 <= v80 <= 1
 0 <= v81 <= 1
 0 <= v82 <= 1
 0 <= v83 <= 1
 0 <= v84 <= 1
 0 <= v85 <= 1
 0 <= v86 <= 1
 0 <= v87 <= 1
 0 <= v88 <= 1
 0 <= v89 <= 1
 0 <= v90 <= 1
 0 <= v91 <= 1
 0 <= v92 <= 1
 0 <= v93 <= 1
 0 <= v94 <= 1
 0 <= v95 <= 1
 0 <= v96 <= 1
 0 <= v97 <= 1
 0 <= v98 <= 1
 0 <= v99 <= 1
 0 <= v100 <= 1
 0 <= v101 <= 1
 0 <= v102 <= 1
 0 <= v103 <= 1
 0 <= v104 <= 1
 0 <= v105 <= 1
 0 <= v106 <= 1
 0 <= v107 <= 1
 0 <= v108 <= 1
 0 <= v109 <= 1
 0 <= v110 <= 1
 0 <= v111 <= 1
 0 <= v112 <= 1
 0 <= v113 <= 1
 0 <= v114 <= 1
 0 <= v115 <= 1
 0 <= v116 <= 1
 0 <= v117 <= 1
 0 <= v118 <= 1
 0 <= v119 <= 1
 0 <= v120 <= 1
 0 <= v1 <= 1105
 0 <= v2 <= 1095
 0 <= v3 <= 1085
 0 <= v4 <= 1070
 0 <= v5 <= 1050
 0 <= v6 <= 980
 0 <= v7 <= 800
 0 <= v8 <= 550
 0 <= v9 <= 280
 0 <= v10 <= 50
 0 <= v11 <= 10
 0 <= v12 <= 10
 0 <= v13 <= 1105
 0 <= v14 <= 1095
 0 <= v15 <= 1085
 0 <= v16 <= 1070
 0 <= v17 <= 1050
 0 <= v18 <= 980
 0 <= v19 <= 800
 0 <= v20 <= 550
 0 <= v21 <= 280
 0 <= v22 <= 50
 0 <= v23 <= 10
 0 <= v24 <= 10
 0 <= v25 <= 1105
 0 <= v26 <= 1095
 0 <= v27 <= 1085
 0 <= v28 <= 1070
 0 <= v29 <= 1050
 0 <= v30 <= 980
 0 <= v31 <= 800
 0 <= v32 <= 550
 0 <= v33 <= 280
 0 <= v34 <= 50
 0 <= v35 <= 10
 0 <= v36 <= 10
 0 <= v37 <= 1105
 0 <= v38 <= 1095
 0 <= v39 <= 1085
 0 <= v40 <= 1070
 0 <= v41 <= 1050
 0 <= v42 <= 980
 0 <= v43 <= 800
 0 <= v44 <= 550
 0 <= v45 <= 280
 0 <= v46 <= 50
 0 <= v47 <= 10
 0 <= v48 <= 10
 0 <= v49 <= 1105
 0 <= v50 <= 1095
 0 <= v51 <= 1085
 0 <= v52 <= 1070
 0 <= v53 <= 1050
 0 <= v54 <= 980
 0 <= v55 <= 800
 0 <= v56 <= 550
 0 <= v57 <= 280
 0 <= v58 <= 50
 0 <= v59 <= 10
 0 <= v60 <= 10
Binaries
 v61  v62  v63  v64  v65  v66  v67  v68  v69  v70  v71  v72  v73  v74  v75 
 v76  v77  v78  v79  v80  v81  v82  v83  v84  v85  v86  v87  v88  v89  v90 
 v91  v92  v93  v94  v95  v96  v97  v98  v99  v100  v101  v102  v103  v104 
 v105  v106  v107  v108  v109  v110  v111  v112  v113  v114  v115  v116  v117 
 v118  v119  v120 
End
