\ENCODING=ISO-8859-1
\Problem name: Clark-Armentano F(E)

Minimize
 obj1: 3.2 v61 + 0.4 v121 + 3.2 v62 + 0.4 v122 + 3.2 v63 + 0.4 v123 + 3.2 v64
       + 0.4 v124 + 3.2 v65 + 0.4 v125 + 3.2 v66 + 0.4 v126 + 3.2 v67
       + 0.4 v127 + 3.2 v68 + 0.4 v128 + 3.2 v69 + 0.4 v129 + 3.2 v70
       + 0.4 v130 + 3.2 v71 + 0.4 v131 + 3.2 v72 + 0.4 v132 + 8 v73 + 0.2 v133
       + 8 v74 + 0.2 v134 + 8 v75 + 0.2 v135 + 8 v76 + 0.2 v136 + 8 v77
       + 0.2 v137 + 8 v78 + 0.2 v138 + 8 v79 + 0.2 v139 + 8 v80 + 0.2 v140
       + 8 v81 + 0.2 v141 + 8 v82 + 0.2 v142 + 8 v83 + 0.2 v143 + 8 v84
       + 0.2 v144 + 20 v85 + 0.1 v145 + 20 v86 + 0.1 v146 + 20 v87 + 0.1 v147
       + 20 v88 + 0.1 v148 + 20 v89 + 0.1 v149 + 20 v90 + 0.1 v150 + 20 v91
       + 0.1 v151 + 20 v92 + 0.1 v152 + 20 v93 + 0.1 v153 + 20 v94 + 0.1 v154
       + 20 v95 + 0.1 v155 + 20 v96 + 0.1 v156 + 50 v97 + 0.05 v157 + 50 v98
       + 0.05 v158 + 50 v99 + 0.05 v159 + 50 v100 + 0.05 v160 + 50 v101
       + 0.05 v161 + 50 v102 + 0.05 v162 + 50 v103 + 0.05 v163 + 50 v104
       + 0.05 v164 + 50 v105 + 0.05 v165 + 50 v106 + 0.05 v166 + 50 v107
       + 0.05 v167 + 50 v108 + 0.05 v168 + 50 v109 + 0.05 v169 + 50 v110
       + 0.05 v170 + 50 v111 + 0.05 v171 + 50 v112 + 0.05 v172 + 50 v113
       + 0.05 v173 + 50 v114 + 0.05 v174 + 50 v115 + 0.05 v175 + 50 v116
       + 0.05 v176 + 50 v117 + 0.05 v177 + 50 v118 + 0.05 v178 + 50 v119
       + 0.05 v179 + 50 v120 + 0.05 v180
Subject To
 c1:   - 1105 v61 + v1 <= 0
 c2:   - v121 + v1  = 125
 c3:   - 980 v62 + v2 <= 0
 c4:   v121 - v122 + v2  = 50
 c5:   - 930 v63 + v3 <= 0
 c6:   v122 - v123 + v3  = 100
 c7:   - 830 v64 + v4 <= 0
 c8:   v123 - v124 + v4  = 50
 c9:   - 780 v65 + v5 <= 0
 c10:  v124 - v125 + v5  = 100
 c11:  - 680 v66 + v6 <= 0
 c12:  v125 - v126 + v6  = 100
 c13:  - 580 v67 + v7 <= 0
 c14:  v126 - v127 + v7  = 125
 c15:  - 455 v68 + v8 <= 0
 c16:  v127 - v128 + v8  = 125
 c17:  - 330 v69 + v9 <= 0
 c18:  v128 - v129 + v9  = 80
 c19:  - 250 v70 + v10 <= 0
 c20:  v129 - v130 + v10  = 100
 c21:  - 150 v71 + v11 <= 0
 c22:  v130 - v131 + v11  = 50
 c23:  - 100 v72 + v12 <= 0
 c24:  v131 - v132 + v12  = 100
 c25:  - 1105 v73 + v13 <= 0
 c26:  - v133 + v13  = 125
 c27:  v121 - v133 <= 0
 c28:  - 980 v74 + v14 <= 0
 c29:  v133 - v134 + v14  = 50
 c30:  v122 - v134 <= 0
 c31:  - 930 v75 + v15 <= 0
 c32:  v134 - v135 + v15  = 100
 c33:  v123 - v135 <= 0
 c34:  - 830 v76 + v16 <= 0
 c35:  v135 - v136 + v16  = 50
 c36:  v124 - v136 <= 0
 c37:  - 780 v77 + v17 <= 0
 c38:  v136 - v137 + v17  = 100
 c39:  v125 - v137 <= 0
 c40:  - 680 v78 + v18 <= 0
 c41:  v137 - v138 + v18  = 100
 c42:  v126 - v138 <= 0
 c43:  - 580 v79 + v19 <= 0
 c44:  v138 - v139 + v19  = 125
 c45:  v127 - v139 <= 0
 c46:  - 455 v80 + v20 <= 0
 c47:  v139 - v140 + v20  = 125
 c48:  v128 - v140 <= 0
 c49:  - 330 v81 + v21 <= 0
 c50:  v140 - v141 + v21  = 80
 c51:  v129 - v141 <= 0
 c52:  - 250 v82 + v22 <= 0
 c53:  v141 - v142 + v22  = 100
 c54:  v130 - v142 <= 0
 c55:  - 150 v83 + v23 <= 0
 c56:  v142 - v143 + v23  = 50
 c57:  v131 - v143 <= 0
 c58:  - 100 v84 + v24 <= 0
 c59:  v143 - v144 + v24  = 100
 c60:  v132 - v144 <= 0
 c61:  - 1105 v85 + v25 <= 0
 c62:  - v145 + v25  = 125
 c63:  v133 - v145 <= 0
 c64:  - 980 v86 + v26 <= 0
 c65:  v145 - v146 + v26  = 50
 c66:  v134 - v146 <= 0
 c67:  - 930 v87 + v27 <= 0
 c68:  v146 - v147 + v27  = 100
 c69:  v135 - v147 <= 0
 c70:  - 830 v88 + v28 <= 0
 c71:  v147 - v148 + v28  = 50
 c72:  v136 - v148 <= 0
 c73:  - 780 v89 + v29 <= 0
 c74:  v148 - v149 + v29  = 100
 c75:  v137 - v149 <= 0
 c76:  - 680 v90 + v30 <= 0
 c77:  v149 - v150 + v30  = 100
 c78:  v138 - v150 <= 0
 c79:  - 580 v91 + v31 <= 0
 c80:  v150 - v151 + v31  = 125
 c81:  v139 - v151 <= 0
 c82:  - 455 v92 + v32 <= 0
 c83:  v151 - v152 + v32  = 125
 c84:  v140 - v152 <= 0
 c85:  - 330 v93 + v33 <= 0
 c86:  v152 - v153 + v33  = 80
 c87:  v141 - v153 <= 0
 c88:  - 250 v94 + v34 <= 0
 c89:  v153 - v154 + v34  = 100
 c90:  v142 - v154 <= 0
 c91:  - 150 v95 + v35 <= 0
 c92:  v154 - v155 + v35  = 50
 c93:  v143 - v155 <= 0
 c94:  - 100 v96 + v36 <= 0
 c95:  v155 - v156 + v36  = 100
 c96:  v144 - v156 <= 0
 c97:  - 1105 v97 + v37 <= 0
 c98:  - v157 + v37  = 125
 c99:  v145 - v157 <= 0
 c100: - 980 v98 + v38 <= 0
 c101: v157 - v158 + v38  = 50
 c102: v146 - v158 <= 0
 c103: - 930 v99 + v39 <= 0
 c104: v158 - v159 + v39  = 100
 c105: v147 - v159 <= 0
 c106: - 830 v100 + v40 <= 0
 c107: v159 - v160 + v40  = 50
 c108: v148 - v160 <= 0
 c109: - 780 v101 + v41 <= 0
 c110: v160 - v161 + v41  = 100
 c111: v149 - v161 <= 0
 c112: - 680 v102 + v42 <= 0
 c113: v161 - v162 + v42  = 100
 c114: v150 - v162 <= 0
 c115: - 580 v103 + v43 <= 0
 c116: v162 - v163 + v43  = 125
 c117: v151 - v163 <= 0
 c118: - 455 v104 + v44 <= 0
 c119: v163 - v164 + v44  = 125
 c120: v152 - v164 <= 0
 c121: - 330 v105 + v45 <= 0
 c122: v164 - v165 + v45  = 80
 c123: v153 - v165 <= 0
 c124: - 250 v106 + v46 <= 0
 c125: v165 - v166 + v46  = 100
 c126: v154 - v166 <= 0
 c127: - 150 v107 + v47 <= 0
 c128: v166 - v167 + v47  = 50
 c129: v155 - v167 <= 0
 c130: - 100 v108 + v48 <= 0
 c131: v167 - v168 + v48  = 100
 c132: v156 - v168 <= 0
 c133: - 1105 v109 + v49 <= 0
 c134: - v169 + v49  = 125
 c135: v145 - v169 <= 0
 c136: - 980 v110 + v50 <= 0
 c137: v169 - v170 + v50  = 50
 c138: v146 - v170 <= 0
 c139: - 930 v111 + v51 <= 0
 c140: v170 - v171 + v51  = 100
 c141: v147 - v171 <= 0
 c142: - 830 v112 + v52 <= 0
 c143: v171 - v172 + v52  = 50
 c144: v148 - v172 <= 0
 c145: - 780 v113 + v53 <= 0
 c146: v172 - v173 + v53  = 100
 c147: v149 - v173 <= 0
 c148: - 680 v114 + v54 <= 0
 c149: v173 - v174 + v54  = 100
 c150: v150 - v174 <= 0
 c151: - 580 v115 + v55 <= 0
 c152: v174 - v175 + v55  = 125
 c153: v151 - v175 <= 0
 c154: - 455 v116 + v56 <= 0
 c155: v175 - v176 + v56  = 125
 c156: v152 - v176 <= 0
 c157: - 330 v117 + v57 <= 0
 c158: v176 - v177 + v57  = 80
 c159: v153 - v177 <= 0
 c160: - 250 v118 + v58 <= 0
 c161: v177 - v178 + v58  = 100
 c162: v154 - v178 <= 0
 c163: - 150 v119 + v59 <= 0
 c164: v178 - v179 + v59  = 50
 c165: v155 - v179 <= 0
 c166: - 100 v120 + v60 <= 0
 c167: v179 - v180 + v60  = 100
 c168: v156 - v180 <= 0
Bounds
 0 <= v61 <= 1
 0 <= v62 <= 1
 0 <= v63 <= 1
 0 <= v64 <= 1
 0 <= v65 <= 1
 0 <= v66 <= 1
 0 <= v67 <= 1
 0 <= v68 <= 1
 0 <= v69 <= 1
 0 <= v70 <= 1
 0 <= v71 <= 1
 0 <= v72 <= 1
 0 <= v73 <= 1
 0 <= v74 <= 1
 0 <= v75 <= 1
 0 <= v76 <= 1
 0 <= v77 <= 1
 0 <= v78 <= 1
 0 <= v79 <= 1
 0 <= v80 <= 1
 0 <= v81 <= 1
 0 <= v82 <= 1
 0 <= v83 <= 1
 0 <= v84 <= 1
 0 <= v85 <= 1
 0 <= v86 <= 1
 0 <= v87 <= 1
 0 <= v88 <= 1
 0 <= v89 <= 1
 0 <= v90 <= 1
 0 <= v91 <= 1
 0 <= v92 <= 1
 0 <= v93 <= 1
 0 <= v94 <= 1
 0 <= v95 <= 1
 0 <= v96 <= 1
 0 <= v97 <= 1
 0 <= v98 <= 1
 0 <= v99 <= 1
 0 <= v100 <= 1
 0 <= v101 <= 1
 0 <= v102 <= 1
 0 <= v103 <= 1
 0 <= v104 <= 1
 0 <= v105 <= 1
 0 <= v106 <= 1
 0 <= v107 <= 1
 0 <= v108 <= 1
 0 <= v109 <= 1
 0 <= v110 <= 1
 0 <= v111 <= 1
 0 <= v112 <= 1
 0 <= v113 <= 1
 0 <= v114 <= 1
 0 <= v115 <= 1
 0 <= v116 <= 1
 0 <= v117 <= 1
 0 <= v118 <= 1
 0 <= v119 <= 1
 0 <= v120 <= 1
 0 <= v1 <= 1105
 0 <= v2 <= 980
 0 <= v3 <= 930
 0 <= v4 <= 830
 0 <= v5 <= 780
 0 <= v6 <= 680
 0 <= v7 <= 580
 0 <= v8 <= 455
 0 <= v9 <= 330
 0 <= v10 <= 250
 0 <= v11 <= 150
 0 <= v12 <= 100
 0 <= v13 <= 1105
 0 <= v14 <= 980
 0 <= v15 <= 930
 0 <= v16 <= 830
 0 <= v17 <= 780
 0 <= v18 <= 680
 0 <= v19 <= 580
 0 <= v20 <= 455
 0 <= v21 <= 330
 0 <= v22 <= 250
 0 <= v23 <= 150
 0 <= v24 <= 100
 0 <= v25 <= 1105
 0 <= v26 <= 980
 0 <= v27 <= 930
 0 <= v28 <= 830
 0 <= v29 <= 780
 0 <= v30 <= 680
 0 <= v31 <= 580
 0 <= v32 <= 455
 0 <= v33 <= 330
 0 <= v34 <= 250
 0 <= v35 <= 150
 0 <= v36 <= 100
 0 <= v37 <= 1105
 0 <= v38 <= 980
 0 <= v39 <= 930
 0 <= v40 <= 830
 0 <= v41 <= 780
 0 <= v42 <= 680
 0 <= v43 <= 580
 0 <= v44 <= 455
 0 <= v45 <= 330
 0 <= v46 <= 250
 0 <= v47 <= 150
 0 <= v48 <= 100
 0 <= v49 <= 1105
 0 <= v50 <= 980
 0 <= v51 <= 930
 0 <= v52 <= 830
 0 <= v53 <= 780
 0 <= v54 <= 680
 0 <= v55 <= 580
 0 <= v56 <= 455
 0 <= v57 <= 330
 0 <= v58 <= 250
 0 <= v59 <= 150
 0 <= v60 <= 100
Binaries
 v61  v62  v63  v64  v65  v66  v67  v68  v69  v70  v71  v72  v73  v74  v75 
 v76  v77  v78  v79  v80  v81  v82  v83  v84  v85  v86  v87  v88  v89  v90 
 v91  v92  v93  v94  v95  v96  v97  v98  v99  v100  v101  v102  v103  v104 
 v105  v106  v107  v108  v109  v110  v111  v112  v113  v114  v115  v116  v117 
 v118  v119  v120 
End
