\ENCODING=ISO-8859-1
\Problem name: Clark-Armentano F(E)

Minimize
 obj1: 25.6 v61 + 0.4 v121 + 25.6 v62 + 0.4 v122 + 25.6 v63 + 0.4 v123
       + 25.6 v64 + 0.4 v124 + 25.6 v65 + 0.4 v125 + 25.6 v66 + 0.4 v126
       + 25.6 v67 + 0.4 v127 + 25.6 v68 + 0.4 v128 + 25.6 v69 + 0.4 v129
       + 25.6 v70 + 0.4 v130 + 25.6 v71 + 0.4 v131 + 25.6 v72 + 0.4 v132
       + 32 v73 + 0.2 v133 + 32 v74 + 0.2 v134 + 32 v75 + 0.2 v135 + 32 v76
       + 0.2 v136 + 32 v77 + 0.2 v137 + 32 v78 + 0.2 v138 + 32 v79 + 0.2 v139
       + 32 v80 + 0.2 v140 + 32 v81 + 0.2 v141 + 32 v82 + 0.2 v142 + 32 v83
       + 0.2 v143 + 32 v84 + 0.2 v144 + 40 v85 + 0.1 v145 + 40 v86 + 0.1 v146
       + 40 v87 + 0.1 v147 + 40 v88 + 0.1 v148 + 40 v89 + 0.1 v149 + 40 v90
       + 0.1 v150 + 40 v91 + 0.1 v151 + 40 v92 + 0.1 v152 + 40 v93 + 0.1 v153
       + 40 v94 + 0.1 v154 + 40 v95 + 0.1 v155 + 40 v96 + 0.1 v156 + 50 v97
       + 0.05 v157 + 50 v98 + 0.05 v158 + 50 v99 + 0.05 v159 + 50 v100
       + 0.05 v160 + 50 v101 + 0.05 v161 + 50 v102 + 0.05 v162 + 50 v103
       + 0.05 v163 + 50 v104 + 0.05 v164 + 50 v105 + 0.05 v165 + 50 v106
       + 0.05 v166 + 50 v107 + 0.05 v167 + 50 v108 + 0.05 v168 + 50 v109
       + 0.05 v169 + 50 v110 + 0.05 v170 + 50 v111 + 0.05 v171 + 50 v112
       + 0.05 v172 + 50 v113 + 0.05 v173 + 50 v114 + 0.05 v174 + 50 v115
       + 0.05 v175 + 50 v116 + 0.05 v176 + 50 v117 + 0.05 v177 + 50 v118
       + 0.05 v178 + 50 v119 + 0.05 v179 + 50 v120 + 0.05 v180
Subject To
 c1:   - 1105 v61 + v1 <= 0
 c2:   - v121 + v1  = 50
 c3:   - 1055 v62 + v2 <= 0
 c4:   v121 - v122 + v2  = 80
 c5:   - 975 v63 + v3 <= 0
 c6:   v122 - v123 + v3  = 180
 c7:   - 795 v64 + v4 <= 0
 c8:   v123 - v124 + v4  = 80
 c9:   - 715 v65 + v5 <= 0
 c10:  v124 - v125 + v5  = 0
 c11:  - 715 v66 + v6 <= 0
 c12:  v125 - v126 + v6  = 0
 c13:  - 715 v67 + v7 <= 0
 c14:  v126 - v127 + v7  = 180
 c15:  - 535 v68 + v8 <= 0
 c16:  v127 - v128 + v8  = 150
 c17:  - 385 v69 + v9 <= 0
 c18:  v128 - v129 + v9  = 10
 c19:  - 375 v70 + v10 <= 0
 c20:  v129 - v130 + v10  = 100
 c21:  - 275 v71 + v11 <= 0
 c22:  v130 - v131 + v11  = 180
 c23:  - 95 v72 + v12 <= 0
 c24:  v131 - v132 + v12  = 95
 c25:  - 1105 v73 + v13 <= 0
 c26:  - v133 + v13  = 50
 c27:  v121 - v133 <= 0
 c28:  - 1055 v74 + v14 <= 0
 c29:  v133 - v134 + v14  = 80
 c30:  v122 - v134 <= 0
 c31:  - 975 v75 + v15 <= 0
 c32:  v134 - v135 + v15  = 180
 c33:  v123 - v135 <= 0
 c34:  - 795 v76 + v16 <= 0
 c35:  v135 - v136 + v16  = 80
 c36:  v124 - v136 <= 0
 c37:  - 715 v77 + v17 <= 0
 c38:  v136 - v137 + v17  = 0
 c39:  v125 - v137 <= 0
 c40:  - 715 v78 + v18 <= 0
 c41:  v137 - v138 + v18  = 0
 c42:  v126 - v138 <= 0
 c43:  - 715 v79 + v19 <= 0
 c44:  v138 - v139 + v19  = 180
 c45:  v127 - v139 <= 0
 c46:  - 535 v80 + v20 <= 0
 c47:  v139 - v140 + v20  = 150
 c48:  v128 - v140 <= 0
 c49:  - 385 v81 + v21 <= 0
 c50:  v140 - v141 + v21  = 10
 c51:  v129 - v141 <= 0
 c52:  - 375 v82 + v22 <= 0
 c53:  v141 - v142 + v22  = 100
 c54:  v130 - v142 <= 0
 c55:  - 275 v83 + v23 <= 0
 c56:  v142 - v143 + v23  = 180
 c57:  v131 - v143 <= 0
 c58:  - 95 v84 + v24 <= 0
 c59:  v143 - v144 + v24  = 95
 c60:  v132 - v144 <= 0
 c61:  - 1105 v85 + v25 <= 0
 c62:  - v145 + v25  = 50
 c63:  v133 - v145 <= 0
 c64:  - 1055 v86 + v26 <= 0
 c65:  v145 - v146 + v26  = 80
 c66:  v134 - v146 <= 0
 c67:  - 975 v87 + v27 <= 0
 c68:  v146 - v147 + v27  = 180
 c69:  v135 - v147 <= 0
 c70:  - 795 v88 + v28 <= 0
 c71:  v147 - v148 + v28  = 80
 c72:  v136 - v148 <= 0
 c73:  - 715 v89 + v29 <= 0
 c74:  v148 - v149 + v29  = 0
 c75:  v137 - v149 <= 0
 c76:  - 715 v90 + v30 <= 0
 c77:  v149 - v150 + v30  = 0
 c78:  v138 - v150 <= 0
 c79:  - 715 v91 + v31 <= 0
 c80:  v150 - v151 + v31  = 180
 c81:  v139 - v151 <= 0
 c82:  - 535 v92 + v32 <= 0
 c83:  v151 - v152 + v32  = 150
 c84:  v140 - v152 <= 0
 c85:  - 385 v93 + v33 <= 0
 c86:  v152 - v153 + v33  = 10
 c87:  v141 - v153 <= 0
 c88:  - 375 v94 + v34 <= 0
 c89:  v153 - v154 + v34  = 100
 c90:  v142 - v154 <= 0
 c91:  - 275 v95 + v35 <= 0
 c92:  v154 - v155 + v35  = 180
 c93:  v143 - v155 <= 0
 c94:  - 95 v96 + v36 <= 0
 c95:  v155 - v156 + v36  = 95
 c96:  v144 - v156 <= 0
 c97:  - 1105 v97 + v37 <= 0
 c98:  - v157 + v37  = 50
 c99:  v145 - v157 <= 0
 c100: - 1055 v98 + v38 <= 0
 c101: v157 - v158 + v38  = 80
 c102: v146 - v158 <= 0
 c103: - 975 v99 + v39 <= 0
 c104: v158 - v159 + v39  = 180
 c105: v147 - v159 <= 0
 c106: - 795 v100 + v40 <= 0
 c107: v159 - v160 + v40  = 80
 c108: v148 - v160 <= 0
 c109: - 715 v101 + v41 <= 0
 c110: v160 - v161 + v41  = 0
 c111: v149 - v161 <= 0
 c112: - 715 v102 + v42 <= 0
 c113: v161 - v162 + v42  = 0
 c114: v150 - v162 <= 0
 c115: - 715 v103 + v43 <= 0
 c116: v162 - v163 + v43  = 180
 c117: v151 - v163 <= 0
 c118: - 535 v104 + v44 <= 0
 c119: v163 - v164 + v44  = 150
 c120: v152 - v164 <= 0
 c121: - 385 v105 + v45 <= 0
 c122: v164 - v165 + v45  = 10
 c123: v153 - v165 <= 0
 c124: - 375 v106 + v46 <= 0
 c125: v165 - v166 + v46  = 100
 c126: v154 - v166 <= 0
 c127: - 275 v107 + v47 <= 0
 c128: v166 - v167 + v47  = 180
 c129: v155 - v167 <= 0
 c130: - 95 v108 + v48 <= 0
 c131: v167 - v168 + v48  = 95
 c132: v156 - v168 <= 0
 c133: - 1105 v109 + v49 <= 0
 c134: - v169 + v49  = 50
 c135: v145 - v169 <= 0
 c136: - 1055 v110 + v50 <= 0
 c137: v169 - v170 + v50  = 80
 c138: v146 - v170 <= 0
 c139: - 975 v111 + v51 <= 0
 c140: v170 - v171 + v51  = 180
 c141: v147 - v171 <= 0
 c142: - 795 v112 + v52 <= 0
 c143: v171 - v172 + v52  = 80
 c144: v148 - v172 <= 0
 c145: - 715 v113 + v53 <= 0
 c146: v172 - v173 + v53  = 0
 c147: v149 - v173 <= 0
 c148: - 715 v114 + v54 <= 0
 c149: v173 - v174 + v54  = 0
 c150: v150 - v174 <= 0
 c151: - 715 v115 + v55 <= 0
 c152: v174 - v175 + v55  = 180
 c153: v151 - v175 <= 0
 c154: - 535 v116 + v56 <= 0
 c155: v175 - v176 + v56  = 150
 c156: v152 - v176 <= 0
 c157: - 385 v117 + v57 <= 0
 c158: v176 - v177 + v57  = 10
 c159: v153 - v177 <= 0
 c160: - 375 v118 + v58 <= 0
 c161: v177 - v178 + v58  = 100
 c162: v154 - v178 <= 0
 c163: - 275 v119 + v59 <= 0
 c164: v178 - v179 + v59  = 180
 c165: v155 - v179 <= 0
 c166: - 95 v120 + v60 <= 0
 c167: v179 - v180 + v60  = 95
 c168: v156 - v180 <= 0
Bounds
 0 <= v61 <= 1
 0 <= v62 <= 1
 0 <= v63 <= 1
 0 <= v64 <= 1
 0 <= v65 <= 1
 0 <= v66 <= 1
 0 <= v67 <= 1
 0 <= v68 <= 1
 0 <= v69 <= 1
 0 <= v70 <= 1
 0 <= v71 <= 1
 0 <= v72 <= 1
 0 <= v73 <= 1
 0 <= v74 <= 1
 0 <= v75 <= 1
 0 <= v76 <= 1
 0 <= v77 <= 1
 0 <= v78 <= 1
 0 <= v79 <= 1
 0 <= v80 <= 1
 0 <= v81 <= 1
 0 <= v82 <= 1
 0 <= v83 <= 1
 0 <= v84 <= 1
 0 <= v85 <= 1
 0 <= v86 <= 1
 0 <= v87 <= 1
 0 <= v88 <= 1
 0 <= v89 <= 1
 0 <= v90 <= 1
 0 <= v91 <= 1
 0 <= v92 <= 1
 0 <= v93 <= 1
 0 <= v94 <= 1
 0 <= v95 <= 1
 0 <= v96 <= 1
 0 <= v97 <= 1
 0 <= v98 <= 1
 0 <= v99 <= 1
 0 <= v100 <= 1
 0 <= v101 <= 1
 0 <= v102 <= 1
 0 <= v103 <= 1
 0 <= v104 <= 1
 0 <= v105 <= 1
 0 <= v106 <= 1
 0 <= v107 <= 1
 0 <= v108 <= 1
 0 <= v109 <= 1
 0 <= v110 <= 1
 0 <= v111 <= 1
 0 <= v112 <= 1
 0 <= v113 <= 1
 0 <= v114 <= 1
 0 <= v115 <= 1
 0 <= v116 <= 1
 0 <= v117 <= 1
 0 <= v118 <= 1
 0 <= v119 <= 1
 0 <= v120 <= 1
 0 <= v1 <= 1105
 0 <= v2 <= 1055
 0 <= v3 <= 975
 0 <= v4 <= 795
 0 <= v5 <= 715
 0 <= v6 <= 715
 0 <= v7 <= 715
 0 <= v8 <= 535
 0 <= v9 <= 385
 0 <= v10 <= 375
 0 <= v11 <= 275
 0 <= v12 <= 95
 0 <= v13 <= 1105
 0 <= v14 <= 1055
 0 <= v15 <= 975
 0 <= v16 <= 795
 0 <= v17 <= 715
 0 <= v18 <= 715
 0 <= v19 <= 715
 0 <= v20 <= 535
 0 <= v21 <= 385
 0 <= v22 <= 375
 0 <= v23 <= 275
 0 <= v24 <= 95
 0 <= v25 <= 1105
 0 <= v26 <= 1055
 0 <= v27 <= 975
 0 <= v28 <= 795
 0 <= v29 <= 715
 0 <= v30 <= 715
 0 <= v31 <= 715
 0 <= v32 <= 535
 0 <= v33 <= 385
 0 <= v34 <= 375
 0 <= v35 <= 275
 0 <= v36 <= 95
 0 <= v37 <= 1105
 0 <= v38 <= 1055
 0 <= v39 <= 975
 0 <= v40 <= 795
 0 <= v41 <= 715
 0 <= v42 <= 715
 0 <= v43 <= 715
 0 <= v44 <= 535
 0 <= v45 <= 385
 0 <= v46 <= 375
 0 <= v47 <= 275
 0 <= v48 <= 95
 0 <= v49 <= 1105
 0 <= v50 <= 1055
 0 <= v51 <= 975
 0 <= v52 <= 795
 0 <= v53 <= 715
 0 <= v54 <= 715
 0 <= v55 <= 715
 0 <= v56 <= 535
 0 <= v57 <= 385
 0 <= v58 <= 375
 0 <= v59 <= 275
 0 <= v60 <= 95
Binaries
 v61  v62  v63  v64  v65  v66  v67  v68  v69  v70  v71  v72  v73  v74  v75 
 v76  v77  v78  v79  v80  v81  v82  v83  v84  v85  v86  v87  v88  v89  v90 
 v91  v92  v93  v94  v95  v96  v97  v98  v99  v100  v101  v102  v103  v104 
 v105  v106  v107  v108  v109  v110  v111  v112  v113  v114  v115  v116  v117 
 v118  v119  v120 
End
